40
1 0 5
2 0 6
2 1 10
3 0 5
3 1 1
3 2 7
4 0 3
4 1 2
4 2 5
4 3 6
5 0 1
5 1 6
5 2 10
5 3 2
5 4 4
6 0 9
6 1 6
6 2 10
6 3 4
6 4 6
6 5 7
7 0 10
7 1 8
7 2 5
7 3 4
7 4 6
7 5 7
7 6 7
8 0 6
8 1 3
8 2 2
8 3 10
8 4 1
8 5 2
8 6 2
8 7 10
9 0 4
9 1 7
9 2 1
9 3 4
9 4 9
9 5 7
9 6 4
9 7 4
9 8 2
10 0 6
10 1 10
10 2 9
10 3 5
10 4 5
10 5 8
10 6 7
10 7 6
10 8 5
10 9 10
11 0 4
11 1 6
11 2 3
11 3 7
11 4 2
11 5 4
11 6 5
11 7 6
11 8 1
11 9 8
11 10 4
12 0 9
12 1 7
12 2 5
12 3 9
12 4 7
12 5 8
12 6 2
12 7 10
12 8 7
12 9 6
12 10 2
12 11 3
13 0 6
13 1 2
13 2 3
13 3 10
13 4 7
13 5 6
13 6 8
13 7 10
13 8 8
13 9 4
13 10 9
13 11 7
13 12 10
14 0 7
14 1 8
14 2 10
14 3 6
14 4 1
14 5 3
14 6 7
14 7 9
14 8 6
14 9 9
14 10 1
14 11 10
14 12 5
14 13 2
15 0 7
15 1 3
15 2 4
15 3 9
15 4 6
15 5 10
15 6 7
15 7 3
15 8 8
15 9 4
15 10 7
15 11 6
15 12 10
15 13 9
15 14 8
16 0 1
16 1 4
16 2 6
16 3 10
16 4 2
16 5 1
16 6 7
16 7 8
16 8 8
16 9 10
16 10 7
16 11 5
16 12 8
16 13 7
16 14 5
16 15 8
17 0 7
17 1 10
17 2 2
17 3 5
17 4 1
17 5 2
17 6 7
17 7 4
17 8 6
17 9 6
17 10 10
17 11 6
17 12 6
17 13 7
17 14 3
17 15 3
17 16 5
18 0 1
18 1 10
18 2 8
18 3 5
18 4 9
18 5 8
18 6 4
18 7 8
18 8 6
18 9 3
18 10 9
18 11 1
18 12 2
18 13 1
18 14 4
18 15 8
18 16 5
18 17 2
19 0 7
19 1 4
19 2 1
19 3 8
19 4 4
19 5 5
19 6 7
19 7 1
19 8 6
19 9 7
19 10 10
19 11 9
19 12 6
19 13 3
19 14 4
19 15 6
19 16 3
19 17 1
19 18 1
20 0 9
20 1 4
20 2 6
20 3 2
20 4 7
20 5 1
20 6 4
20 7 2
20 8 4
20 9 8
20 10 1
20 11 2
20 12 9
20 13 6
20 14 10
20 15 8
20 16 3
20 17 3
20 18 5
20 19 4
21 0 5
21 1 4
21 2 4
21 3 7
21 4 3
21 5 3
21 6 7
21 7 3
21 8 9
21 9 7
21 10 4
21 11 1
21 12 2
21 13 9
21 14 10
21 15 2
21 16 8
21 17 5
21 18 5
21 19 3
21 20 10
22 0 2
22 1 6
22 2 8
22 3 9
22 4 4
22 5 10
22 6 5
22 7 9
22 8 7
22 9 3
22 10 9
22 11 9
22 12 2
22 13 5
22 14 7
22 15 2
22 16 1
22 17 9
22 18 3
22 19 2
22 20 2
22 21 3
23 0 5
23 1 8
23 2 9
23 3 10
23 4 8
23 5 8
23 6 10
23 7 5
23 8 9
23 9 6
23 10 6
23 11 2
23 12 4
23 13 1
23 14 3
23 15 3
23 16 2
23 17 7
23 18 2
23 19 2
23 20 6
23 21 3
23 22 6
24 0 10
24 1 2
24 2 1
24 3 7
24 4 6
24 5 1
24 6 6
24 7 2
24 8 3
24 9 10
24 10 1
24 11 3
24 12 7
24 13 2
24 14 1
24 15 3
24 16 7
24 17 7
24 18 1
24 19 2
24 20 5
24 21 4
24 22 9
24 23 4
25 0 4
25 1 9
25 2 7
25 3 8
25 4 3
25 5 4
25 6 2
25 7 8
25 8 5
25 9 8
25 10 3
25 11 7
25 12 10
25 13 5
25 14 1
25 15 6
25 16 8
25 17 5
25 18 6
25 19 7
25 20 3
25 21 9
25 22 8
25 23 2
25 24 1
26 0 3
26 1 8
26 2 3
26 3 5
26 4 10
26 5 9
26 6 10
26 7 5
26 8 6
26 9 9
26 10 7
26 11 5
26 12 2
26 13 6
26 14 2
26 15 9
26 16 6
26 17 3
26 18 8
26 19 7
26 20 1
26 21 6
26 22 7
26 23 6
26 24 5
26 25 7
27 0 6
27 1 4
27 2 5
27 3 2
27 4 8
27 5 2
27 6 9
27 7 5
27 8 8
27 9 10
27 10 8
27 11 6
27 12 9
27 13 9
27 14 10
27 15 1
27 16 9
27 17 4
27 18 1
27 19 3
27 20 8
27 21 3
27 22 3
27 23 1
27 24 8
27 25 2
27 26 5
28 0 8
28 1 4
28 2 1
28 3 10
28 4 9
28 5 3
28 6 5
28 7 1
28 8 10
28 9 2
28 10 5
28 11 1
28 12 6
28 13 1
28 14 5
28 15 6
28 16 4
28 17 2
28 18 10
28 19 8
28 20 6
28 21 8
28 22 2
28 23 4
28 24 7
28 25 1
28 26 3
28 27 7
29 0 7
29 1 10
29 2 1
29 3 5
29 4 2
29 5 6
29 6 5
29 7 10
29 8 1
29 9 10
29 10 3
29 11 5
29 12 3
29 13 5
29 14 4
29 15 5
29 16 6
29 17 1
29 18 6
29 19 9
29 20 5
29 21 9
29 22 4
29 23 6
29 24 10
29 25 1
29 26 10
29 27 9
29 28 5
30 0 8
30 1 10
30 2 5
30 3 9
30 4 10
30 5 7
30 6 3
30 7 3
30 8 1
30 9 9
30 10 1
30 11 6
30 12 3
30 13 9
30 14 1
30 15 6
30 16 10
30 17 4
30 18 9
30 19 6
30 20 8
30 21 10
30 22 6
30 23 4
30 24 6
30 25 2
30 26 4
30 27 3
30 28 10
30 29 7
31 0 1
31 1 5
31 2 10
31 3 1
31 4 6
31 5 5
31 6 4
31 7 10
31 8 4
31 9 10
31 10 9
31 11 1
31 12 3
31 13 4
31 14 9
31 15 1
31 16 5
31 17 8
31 18 1
31 19 4
31 20 10
31 21 4
31 22 1
31 23 10
31 24 8
31 25 7
31 26 9
31 27 1
31 28 7
31 29 4
31 30 4
32 0 5
32 1 10
32 2 9
32 3 6
32 4 4
32 5 2
32 6 9
32 7 5
32 8 1
32 9 3
32 10 4
32 11 1
32 12 3
32 13 7
32 14 2
32 15 3
32 16 9
32 17 10
32 18 7
32 19 9
32 20 8
32 21 8
32 22 6
32 23 10
32 24 8
32 25 3
32 26 8
32 27 7
32 28 6
32 29 5
32 30 9
32 31 1
33 0 7
33 1 7
33 2 4
33 3 1
33 4 6
33 5 1
33 6 4
33 7 6
33 8 7
33 9 1
33 10 4
33 11 7
33 12 1
33 13 9
33 14 7
33 15 5
33 16 9
33 17 5
33 18 3
33 19 10
33 20 5
33 21 3
33 22 6
33 23 1
33 24 1
33 25 2
33 26 3
33 27 9
33 28 1
33 29 5
33 30 7
33 31 7
33 32 2
34 0 3
34 1 2
34 2 1
34 3 8
34 4 5
34 5 1
34 6 10
34 7 4
34 8 10
34 9 3
34 10 8
34 11 5
34 12 8
34 13 6
34 14 3
34 15 10
34 16 2
34 17 9
34 18 8
34 19 3
34 20 4
34 21 3
34 22 1
34 23 4
34 24 9
34 25 10
34 26 3
34 27 8
34 28 3
34 29 4
34 30 2
34 31 1
34 32 2
34 33 4
35 0 4
35 1 1
35 2 7
35 3 10
35 4 7
35 5 3
35 6 2
35 7 5
35 8 7
35 9 10
35 10 5
35 11 9
35 12 6
35 13 7
35 14 6
35 15 9
35 16 6
35 17 8
35 18 2
35 19 4
35 20 8
35 21 1
35 22 3
35 23 2
35 24 7
35 25 6
35 26 6
35 27 3
35 28 7
35 29 10
35 30 9
35 31 2
35 32 7
35 33 4
35 34 8
36 0 5
36 1 8
36 2 10
36 3 3
36 4 2
36 5 2
36 6 2
36 7 4
36 8 10
36 9 3
36 10 6
36 11 2
36 12 6
36 13 9
36 14 7
36 15 1
36 16 5
36 17 3
36 18 9
36 19 7
36 20 7
36 21 3
36 22 4
36 23 3
36 24 10
36 25 9
36 26 4
36 27 10
36 28 7
36 29 5
36 30 2
36 31 10
36 32 5
36 33 2
36 34 10
36 35 3
37 0 9
37 1 6
37 2 4
37 3 5
37 4 10
37 5 7
37 6 10
37 7 3
37 8 7
37 9 3
37 10 1
37 11 8
37 12 4
37 13 10
37 14 4
37 15 5
37 16 3
37 17 5
37 18 7
37 19 6
37 20 9
37 21 1
37 22 8
37 23 2
37 24 5
37 25 6
37 26 9
37 27 9
37 28 7
37 29 5
37 30 1
37 31 8
37 32 3
37 33 1
37 34 1
37 35 5
37 36 3
38 0 5
38 1 4
38 2 2
38 3 1
38 4 10
38 5 4
38 6 7
38 7 2
38 8 3
38 9 2
38 10 7
38 11 2
38 12 4
38 13 8
38 14 3
38 15 10
38 16 3
38 17 2
38 18 3
38 19 5
38 20 8
38 21 6
38 22 3
38 23 4
38 24 4
38 25 7
38 26 2
38 27 8
38 28 7
38 29 1
38 30 7
38 31 7
38 32 9
38 33 7
38 34 1
38 35 2
38 36 5
38 37 5
39 0 1
39 1 1
39 2 10
39 3 7
39 4 7
39 5 2
39 6 10
39 7 8
39 8 7
39 9 4
39 10 4
39 11 4
39 12 1
39 13 2
39 14 5
39 15 7
39 16 9
39 17 2
39 18 5
39 19 9
39 20 9
39 21 1
39 22 4
39 23 5
39 24 9
39 25 6
39 26 1
39 27 2
39 28 1
39 29 2
39 30 3
39 31 1
39 32 9
39 33 3
39 34 10
39 35 8
39 36 9
39 37 9
39 38 8
